NAME : teste
COMMENT : 225-city problem (Juenger,Raecke,Tschoecke)
TYPE : TSP
DIMENSION : 10
EDGE_WEIGHT_TYPE : EUC_2D
NODE_COORD_SECTION
1 4000 4000
2 4000 4500
3 4000 5000
4 4000 5500
5 4000 6000
6 4000 6500
7 4000 7000
8 4000 7500
9 4000 8000
10 4000 1000
EOF